COLUMNS

passenger_count
pickup_ID
dropoff_ID
request_time_sec
pickup_district
dropoff_district
LDuals
IDuals
vehicle_ID
pick_position
drop_position

REQUESTS_INFO
1      771       1218      30285     290       84        191       191       20        1         3         
1      253       438       30311     206       100       127       127       26        1         2         
3      480       990       30323     52        290       145       145       31        1         3         
1      549       556       30317     52        199       94        94        42        1         2         
1      883       1026      30204     290       291       333       333       110       1         2         
1      746       331       30320     290       127       149       149       117       1         4         
1      864       335       30306     290       119       198       198       139       1         3         
1      971       1069      30307     290       291       205       205       147       1         3         
3      680       378       30304     290       168       192       192       162       1         3         
2      527       415       30306     52        100       146       146       193       1         2         
1      324       417       30327     299       100       129       129       203       1         3         
1      904       606       30318     290       189       173       173       212       1         3         
1      158       209       30318     174       266       136       136       222       1         2         
1      803       581       30326     291       189       146.25    146.25    247       1         3         
2      906       743       30267     290       290       311       311       257       1         2         
2      215       372       30310     178       119       154       154       271       1         2         
3      909       949       30123     290       290       418       418       310       1         2         
1      349       627       30311     127       189       147       147       326       1         3         
1      922       696       30302     50        189       249       249       329       1         2         
3      947       790       30273     290       290       302       302       349       1         2         
1      779       670       30326     131       280       146       146       353       1         2         
1      794       649       30319     290       189       170       170       360       1         2         
1      688       369       30310     131       52        129       129       366       1         3         
1      815       575       30259     290       189       264       264       384       1         2         
4      968       116       30232     290       9         349       349       389       1         2         
2      375       835       30272     119       290       156       156       416       1         3         
1      1048      1207      30328     291       192       184       184       443       1         2         
1      816       34        30236     290       98        296       296       452       1         2         
1      436       650       30315     100       189       102       102       476       1         3         
3      947       674       30310     290       189       226       226       587       1         3         
3      947       1010      30224     290       290       351       351       592       1         2         
1      924       789       30290     290       290       234       234       595       1         2         
1      794       717       30325     290       189       164       164       599       1         4         
3      884       605       30328     290       189       190       190       613       1         3         
3      759       594       30312     131       131       146       146       647       1         2         
3      924       291       30274     290       87        264       264       667       1         3         
3      309       462       30305     127       189       160       160       682       1         2         
1      679       535       30300     290       189       136       136       705       1         4         
3      947       674       30310     290       189       226       226       741       1         3         
3      466       601       30322     199       189       81        81        742       1         2         
1      894       719       30300     291       189       177.5     177.5     758       1         2         
3      904       556       30203     290       199       339       339       784       1         2         
1      819       760       30186     999       291       412       412       791       1         2         
1      813       477       30278     290       52        240       240       800       1         3         
1      897       431       30298     291       52        184.5     184.5     808       1         3         
3      946       605       30298     290       189       233       233       835       1         2         
1      702       836       30304     290       290       150       150       856       1         3         
3      840       749       30286     290       290       260       260       858       1         2         
1      888       557       30190     290       189       372       372       864       1         2         
1      990       1027      30251     290       50        285       285       906       1         2         
1      909       557       30321     290       189       211       211       932       1         4         
1      958       1044      30274     291       291       210.5     210.5     935       1         2         
2      810       724       30311     290       290       159       159       953       1         2         
3      1002      980       30309     291       291       199       199       1014      1         2         
1      835       674       30272     290       189       200       200       1020      1         2         
2      902       846       30285     50        291       255       255       1082      1         2         
3      771       512       30296     290       199       210       210       1099      1         3         
3      780       1245      30303     291       192       167       167       1118      1         2         
2      941       738       30284     50        189       251.5     251.5     1127      1         2         
1      1090      1244      30229     291       192       310       310       1135      1         2         
1      950       629       30308     290       189       206       206       1150      1         3         
1      1048      1005      30329     291       50        168       168       1191      1         3         
2      1087      64        30306     291       98        130       130       1203      1         4         
1      989       742       30315     50        290       223       223       1225      1         3         
1      1111      1002      30293     50        291       144       144       1246      1         2         
3      771       863       30300     290       290       206       206       1247      1         3         
1      793       1069      30304     290       291       213       213       1247      2         4         
1      284       556       30305     299       199       139.5     139.5     1251      1         3         
3      1001      781       30135     291       291       412.5     412.5     1253      1         2         
1      992       1069      30261     290       291       282       282       1266      1         2         
1      813       698       30285     290       189       233       233       1277      1         2         
2      745       82        30299     290       98        178       178       1319      1         2         
3      743       968       30256     290       290       204       204       1327      1         2         
2      60        60        30319     9         9         115       115       1337      1         2         
3      1001      833       30250     291       50        297.5     297.5     1347      1         3         
2      937       1025      30326     291       291       173.5     173.5     1363      1         2         
1      813       650       30309     290       189       192       192       1531      1         2         
3      802       873       30314     291       291       156.5     156.5     1734      1         2         
1      927       817       30258     290       290       293       293       1759      1         2         
1      902       574       30325     50        189       215       215       1854      1         3         
1      924       627       30321     290       189       182       182       1858      1         3         
1      905       116       30309     290       9         155       155       1874      1         3         
1      970       633       30314     290       189       220       220       1883      1         3         
1      1150      1140      30318     291       84        140.5     140.5     1900      1         2         
1      326       527       30329     299       52        122       122       1938      1         2         
1      991       652       30328     290       189       154       154       1944      1         2         
1      884       1263      30308     290       192       210       210       1959      1         4         
2      771       863       30300     290       290       206       206       1971      1         3         
1      1025      787       30277     291       50        262       262       1978      1         3         
3      662       439       30330     131       189       0         0         0         0         0         
2      722       193       30330     290       266       0         0         0         0         0         
3      722       193       30330     290       266       0         0         0         0         0         
1      629       585       30330     189       999       0         0         0         0         0         
1      527       578       30330     52        189       0         0         0         0         0         
1      621       747       30330     280       290       0         0         0         0         0         
1      557       116       30330     189       9         0         0         0         0         0         
1      527       530       30330     52        189       0         0         0         0         0         
3      662       439       30330     131       189       0         0         0         0         0         
1      884       767       30331     290       290       0         0         0         0         0         
1      626       718       30331     189       189       0         0         0         0         0         
1      688       914       30331     131       291       0         0         0         0         0         
1      133       556       30331     9         199       0         0         0         0         0         
1      183       535       30331     178       189       0         0         0         0         0         
1      685       671       30331     999       280       0         0         0         0         0         
2      896       697       30331     291       189       0         0         0         0         0         
1      135       631       30332     286       189       0         0         0         0         0         
1      571       665       30332     52        131       0         0         0         0         0         
1      556       670       30332     199       280       0         0         0         0         0         
1      848       980       30332     291       291       0         0         0         0         0         
1      715       870       30332     131       291       0         0         0         0         0         
1      608       747       30333     189       290       0         0         0         0         0         
1      1031      885       30333     50        290       0         0         0         0         0         
1      768       627       30333     290       189       0         0         0         0         0         
2      863       695       30333     290       189       0         0         0         0         0         
3      863       695       30333     290       189       0         0         0         0         0         
1      207       413       30334     286       52        0         0         0         0         0         
2      438       673       30334     100       189       0         0         0         0         0         
1      365       858       30334     299       290       0         0         0         0         0         
1      766       859       30334     290       290       0         0         0         0         0         
2      757       980       30334     131       291       0         0         0         0         0         
3      438       673       30334     100       189       0         0         0         0         0         
2      254       556       30334     87        199       0         0         0         0         0         
1      455       481       30334     52        189       0         0         0         0         0         
1      791       948       30334     290       290       0         0         0         0         0         
1      609       79        30335     189       98        0         0         0         0         0         
1      677       629       30335     189       189       0         0         0         0         0         
2      294       504       30335     87        52        0         0         0         0         0         
1      693       1011      30335     280       84        0         0         0         0         0         
1      693       917       30335     280       291       0         0         0         0         0         
1      930       1154      30335     999       129       0         0         0         0         0         
1      485       417       30335     189       100       0         0         0         0         0         
1      655       350       30336     189       127       0         0         0         0         0         
1      1149      1300      30336     291       192       0         0         0         0         0         
1      652       627       30336     189       189       0         0         0         0         0         
1      839       968       30336     290       290       0         0         0         0         0         
1      864       882       30336     290       290       0         0         0         0         0         
1      390       438       30336     52        100       0         0         0         0         0         
1      272       137       30336     127       286       0         0         0         0         0         
1      990       795       30336     290       290       0         0         0         0         0         
1      981       79        30336     291       98        0         0         0         0         0         
1      304       600       30336     299       280       0         0         0         0         0         
2      458       650       30337     52        189       0         0         0         0         0         
1      1022      1542      30337     291       296       0         0         0         0         0         
1      485       651       30337     189       189       0         0         0         0         0         
1      756       602       30338     131       189       0         0         0         0         0         
2      745       64        30338     290       98        0         0         0         0         0         
3      745       64        30338     290       98        0         0         0         0         0         
1      1231      738       30338     129       189       0         0         0         0         0         
1      945       152       30338     50        9         0         0         0         0         0         
1      720       651       30338     290       189       0         0         0         0         0         
1      328       303       30338     299       299       0         0         0         0         0         
1      923       850       30338     290       291       0         0         0         0         0         
1      621       697       30339     280       189       0         0         0         0         0         
1      756       690       30339     131       131       0         0         0         0         0         
1      532       627       30339     199       189       0         0         0         0         0         
1      884       670       30339     290       280       0         0         0         0         0         
1      1171      1218      30339     192       84        0         0         0         0         0         
1      304       116       30339     299       9         0         0         0         0         0         
3      148       272       30340     178       127       0         0         0         0         0         
2      148       272       30340     178       127       0         0         0         0         0         
1      991       11        30340     290       999       0         0         0         0         0         
1      348       605       30340     299       189       0         0         0         0         0         
1      726       685       30340     290       999       0         0         0         0         0         
1      718       743       30341     189       290       0         0         0         0         0         
1      897       805       30341     291       291       0         0         0         0         0         
1      312       441       30341     87        168       0         0         0         0         0         
1      883       1025      30341     290       291       0         0         0         0         0         
3      608       153       30341     189       286       0         0         0         0         0         
3      608       153       30341     189       286       0         0         0         0         0         
1      247       600       30341     266       280       0         0         0         0         0         
1      461       604       30342     189       189       0         0         0         0         0         
1      874       696       30342     291       189       0         0         0         0         0         
1      768       884       30342     290       290       0         0         0         0         0         
3      810       1304      30342     290       129       0         0         0         0         0         
3      255       32        30342     87        98        0         0         0         0         0         
1      887       1002      30342     290       291       0         0         0         0         0         
1      632       626       30342     189       189       0         0         0         0         0         
2      924       1078      30342     290       84        0         0         0         0         0         
3      1044      827       30342     291       291       0         0         0         0         0         
3      924       1078      30342     290       84        0         0         0         0         0         
3      511       593       30342     199       52        0         0         0         0         0         
2      511       593       30342     199       52        0         0         0         0         0         
2      1044      827       30342     291       291       0         0         0         0         0         
1      789       769       30343     290       290       0         0         0         0         0         
1      981       549       30343     291       52        0         0         0         0         0         
1      375       599       30343     119       280       0         0         0         0         0         
1      397       604       30343     168       189       0         0         0         0         0         
1      152       480       30343     9         52        0         0         0         0         0         
1      532       618       30343     199       131       0         0         0         0         0         
1      415       352       30343     100       119       0         0         0         0         0         
3      848       829       30344     291       50        0         0         0         0         0         
1      860       789       30344     290       290       0         0         0         0         0         
1      439       479       30344     189       52        0         0         0         0         0         
1      578       626       30344     189       189       0         0         0         0         0         
1      571       579       30344     52        189       0         0         0         0         0         
1      549       622       30344     52        280       0         0         0         0         0         
1      549       649       30344     52        189       0         0         0         0         0         
2      848       829       30344     291       50        0         0         0         0         0         
1      1088      1187      30344     291       291       0         0         0         0         0         
1      991       881       30344     290       290       0         0         0         0         0         
1      217       507       30345     87        189       0         0         0         0         0         
1      582       461       30345     189       189       0         0         0         0         0         
1      960       1207      30346     291       192       0         0         0         0         0         
2      1023      687       30346     291       131       0         0         0         0         0         
1      430       498       30346     52        52        0         0         0         0         0         
1      726       579       30347     290       189       0         0         0         0         0         
1      500       436       30347     52        100       0         0         0         0         0         
1      789       629       30347     290       189       0         0         0         0         0         
3      134       673       30347     9         189       0         0         0         0         0         
2      134       673       30347     9         189       0         0         0         0         0         
1      947       627       30348     290       189       0         0         0         0         0         
1      556       310       30348     199       127       0         0         0         0         0         
1      484       627       30348     189       189       0         0         0         0         0         
1      328       330       30348     299       127       0         0         0         0         0         
3      432       366       30348     52        299       0         0         0         0         0         
1      824       386       30349     291       299       0         0         0         0         0         
1      338       478       30349     277       52        0         0         0         0         0         
1      772       504       30349     290       52        0         0         0         0         0         
1      870       116       30350     291       9         0         0         0         0         0         
2      985       698       30350     50        189       0         0         0         0         0         
3      240       252       30351     87        206       0         0         0         0         0         
1      726       794       30351     290       290       0         0         0         0         0         
1      947       812       30351     290       290       0         0         0         0         0         
1      924       1054      30351     290       84        0         0         0         0         0         
1      396       372       30351     119       119       0         0         0         0         0         
1      604       698       30351     189       189       0         0         0         0         0         
1      526       689       30351     52        131       0         0         0         0         0         
3      240       252       30351     87        206       0         0         0         0         0         
1      231       556       30352     266       199       0         0         0         0         0         
2      692       10        30352     280       98        0         0         0         0         0         
3      692       10        30352     280       98        0         0         0         0         0         
1      457       416       30352     52        100       0         0         0         0         0         
1      304       460       30352     299       189       0         0         0         0         0         
1      863       48        30352     290       98        0         0         0         0         0         
1      783       1069      30352     50        291       0         0         0         0         0         
1      523       48        30352     52        98        0         0         0         0         0         
1      726       721       30352     290       290       0         0         0         0         0         
1      462       47        30352     189       98        0         0         0         0         0         
2      665       535       30353     131       189       0         0         0         0         0         
3      665       535       30353     131       189       0         0         0         0         0         
1      440       598       30353     168       189       0         0         0         0         0         
1      256       409       30353     87        52        0         0         0         0         0         
1      621       232       30353     280       266       0         0         0         0         0         
1      374       726       30354     119       290       0         0         0         0         0         
1      745       504       30354     290       52        0         0         0         0         0         
1      598       625       30354     189       189       0         0         0         0         0         
1      744       679       30354     290       290       0         0         0         0         0         
3      581       694       30354     189       189       0         0         0         0         0         
3      581       694       30354     189       189       0         0         0         0         0         
3      839       35        30355     290       98        0         0         0         0         0         
3      179       49        30355     178       98        0         0         0         0         0         
2      839       35        30355     290       98        0         0         0         0         0         
3      739       739       30355     189       189       0         0         0         0         0         
1      760       720       30355     291       290       0         0         0         0         0         
2      556       1208      30355     199       192       0         0         0         0         0         
1      679       720       30356     290       290       0         0         0         0         0         
1      816       885       30357     290       290       0         0         0         0         0         
1      173       780       30357     286       291       0         0         0         0         0         
2      35        593       30357     98        52        0         0         0         0         0         
1      621       600       30357     280       280       0         0         0         0         0         
2      438       697       30357     100       189       0         0         0         0         0         
1      489       695       30357     199       189       0         0         0         0         0         
1      663       1693      30357     131       142       0         0         0         0         0         
3      904       696       30358     290       189       0         0         0         0         0         
3      618       526       30358     131       52        0         0         0         0         0         
1      883       1032      30359     290       84        0         0         0         0         0         
1      441       603       30359     168       189       0         0         0         0         0         
1      532       721       30359     199       290       0         0         0         0         0         
1      347       267       30359     299       266       0         0         0         0         0         
1      983       574       30359     291       189       0         0         0         0         0         
1      628       646       30359     189       280       0         0         0         0         0         
